1612260
26 8 6468
8 57 1777
57 14 6904
14 7 6874
7 35 11459
35 49 24707
49 27 10810
27 58 24825
58 15 10880
15 62 14689
62 47 23516
47 1 7938
1 44 15587
44 64 16726
64 19 13332
19 3 4440
3 46 12782
46 12 9114
12 53 13536
53 0 18207
0 23 15310
23 60 5437
60 11 10412
11 31 4813
31 39 3996
39 4 3130
4 18 15574
18 48 8895
48 22 4353
22 5 16175
5 40 10602
40 29 5056
29 24 1249
24 28 9940
28 59 6419
59 55 13074
55 41 5894
41 2 13084
2 20 17216
20 37 42598
37 6 28523
6 66 19183
66 63 14572
63 10 35955
10 65 13370
65 25 57991
25 54 61621
54 33 20835
33 45 36286
45 42 69394
42 30 116978
30 21 39447
21 51 46274
51 32 101509
32 56 88918
56 17 27906
17 9 28652
9 13 62052
13 43 62420
43 52 84806
52 36 6554
36 61 30446
61 38 8740
38 50 11004
50 34 8926
34 67 19070
67 16 43285
16 26 1445
